(set-info :origin "driver benchmark extracted from Microsoft SDV")
(set-logic HORN)
(declare-fun Proc27 (Int Int Int Bool Int) Bool)
(declare-fun Proc39 (Int Int Int Bool Int Int Int Int) Bool)
(declare-fun Proc24 (Int Int Int Bool Int) Bool)
(declare-fun Proc33 (Int Int Int Bool Int) Bool)
(declare-fun Proc10 (Int Int Int Bool Int Int Int Int) Bool)
(declare-fun Proc41 (Int Int Int Bool) Bool)
(declare-fun Proc42 (Int Int Int Bool Int Int) Bool)
(declare-fun Proc2 (Int Int Int Bool Int Int Int) Bool)
(declare-fun Proc16 (Int Int Int Bool) Bool)
(declare-fun Proc23 (Int Int Int Bool Int) Bool)
(declare-fun Proc21 (Int Int Int Bool Int) Bool)
(declare-fun Proc37 (Int Int Int Bool Int Int) Bool)
(declare-fun Proc43 (Int Int Int Bool) Bool)
(declare-fun Proc0 (Int Int Int Bool Int) Bool)
(declare-fun Proc22 (Int Int Int Bool Int) Bool)
(declare-fun Proc30 (Int Int Int Bool Int) Bool)
(declare-fun Proc7 (Int Int Int Bool Int Int) Bool)
(declare-fun Proc12 (Int Int Int Bool Int Int) Bool)
(declare-fun Proc19 (Int Int Int Bool Int Int) Bool)
(declare-fun Proc8 (Int Int Int Bool Int Int Int Int) Bool)
(declare-fun Proc11 (Int Int Int Bool Int Int Int) Bool)
(declare-fun Proc32 (Int Int Int Bool Int) Bool)
(declare-fun Proc25 (Int Int Int Bool Int) Bool)
(declare-fun Proc4 (Int Int Int Bool Int Int Int) Bool)
(declare-fun Proc29 (Int Int Int Bool Int) Bool)
(declare-fun Proc5 (Int Int Int Bool Int Int Int Int Int Int) Bool)
(declare-fun Proc9 (Int Int Int Bool Int) Bool)
(declare-fun Proc20 (Int Int Int Bool Int Int Int Bool Int) Bool)
(declare-fun Proc36 (Int Int Int Bool) Bool)
(declare-fun Proc44 (Int Int Int Bool Int Bool Int Int Int) Bool)
(declare-fun Proc38 (Int Int Int Bool Int) Bool)
(declare-fun Proc13 (Int Int Int Bool Int Int Int) Bool)
(declare-fun Proc31 (Int Int Int Bool Int) Bool)
(declare-fun Proc17 (Int Int Int Bool Int Int) Bool)
(declare-fun Proc18 (Int Int Int Bool Int) Bool)
(declare-fun Proc35 (Int Int Int Bool Int) Bool)
(declare-fun Proc26 (Int Int Int Bool Int) Bool)
(declare-fun Proc6 (Int Int Int Bool Int Int Int) Bool)
(declare-fun Proc40 (Int Int Int Bool) Bool)
(declare-fun Proc1
             (Int Int Int Bool Int Int Int Int Int Int Int Int Int Int Int Int)
             Bool)
(declare-fun Proc3 (Int Int Int Bool Int Int Int) Bool)
(declare-fun Proc28 (Int Int Int Bool Int) Bool)
(declare-fun Proc15 (Int Int Int Bool) Bool)
(declare-fun Proc34 (Int Int Int Bool Int Int) Bool)
(declare-fun Proc14 (Int Int Int Bool Int Int Int) Bool)
(assert (forall ((A Int)
         (B Int)
         (C Int)
         (D Int)
         (E Int)
         (F Int)
         (G Int)
         (H Int)
         (I Int)
         (J Int)
         (K Bool))
  (let ((a!1 (not (and (not (= F 0))
                       (= E (+ 24 F))
                       (Proc1 J I H K E 99 F 0 D 0 0 0 1 1 1 C)))))
  (let ((a!2 (not (or (not K)
                      (not (Proc0 J I H K 0))
                      (= G 0)
                      (= F 0)
                      a!1
                      (not (= B 0))))))
    (=> a!2 (Proc2 J I H K G A B))))))
(assert (forall ((A Int) (B Int) (C Int) (D Int) (E Int) (F Int) (G Int) (K Bool))
  (let ((a!1 (not (or (not K) (not (Proc3 G F E K D C B)) (not (= A 0))))))
    (=> a!1 (Proc4 G F E K D C A)))))
(assert (forall ((A Int)
         (B Int)
         (C Int)
         (D Int)
         (E Int)
         (F Int)
         (G Int)
         (H Int)
         (K Bool))
  (let ((a!1 (not (or (not K)
                      (= H 0)
                      (not (Proc5 G F E K D 100 C 1 1 1))
                      (not (Proc3 G F E K H D B))
                      (not (= A B))))))
    (=> a!1 (Proc6 G F E K H D A)))))
(assert (forall ((A Int)
         (B Int)
         (C Int)
         (D Int)
         (E Int)
         (F Int)
         (G Int)
         (H Int)
         (I Int)
         (J Int)
         (K Bool)
         (L Int))
  (let ((a!1 (and (= L J) (not (<= I (+ 4 L)))))
        (a!2 (and (not (<= I J)) (= H I) (not (<= G (+ 4 H))) (not (<= G I)))))
  (let ((a!3 (or (not K)
                 (not a!1)
                 (not a!2)
                 (not (Proc7 G F E K H L))
                 (not (and (= D 0) (= C G))))))
    (=> (not a!3) (Proc8 J F E K B A D C))))))
(assert (forall ((A Int)
         (B Int)
         (C Int)
         (D Int)
         (E Int)
         (F Int)
         (G Int)
         (H Int)
         (I Int)
         (K Bool))
  (let ((a!1 (and (not (<= G (+ 4 I))) (not (<= G H)))))
  (let ((a!2 (or (not K)
                 (not (= I H))
                 (not a!1)
                 (not (Proc9 G F E K I))
                 (not (and (= D 0) (= C G))))))
    (=> (not a!2) (Proc10 H F E K B A D C))))))
(assert (forall ((A Int) (B Int) (C Int) (D Int) (K Bool))
  (=> (not (or (not K) (= D 0))) (Proc9 C B A K D))))
(assert (forall ((A Int)
         (B Int)
         (C Int)
         (D Int)
         (E Int)
         (F Int)
         (G Int)
         (H Int)
         (I Int)
         (J Int)
         (K Bool)
         (L Int)
         (M Int)
         (N Int)
         (O Int)
         (P Int)
         (Q Int)
         (R Int)
         (S Int))
  (let ((a!1 (not (and (= Q (- 1073741670)) (= S Q))))
        (a!2 (not (and (= P (- 1073741811)) (= S P)))))
  (let ((a!3 (and (or (not (= S 0)) (not (= R S)))
                  (or a!1 (not (= R S)))
                  (or a!2 (not (= R S))))))
    (=> (not (or (not K) a!3)) (Proc1 O N M K L J I H G F E D C B A R))))))
(assert (forall ((A Int) (B Int) (C Int) (D Int) (E Int) (F Int) (K Bool))
  (let ((a!1 (not (or (not K) (= F 0) (not (= E 259))))))
    (=> a!1 (Proc11 D C B K A F E)))))
(assert (forall ((A Int)
         (B Int)
         (C Int)
         (D Int)
         (E Int)
         (F Int)
         (G Int)
         (H Int)
         (I Int)
         (K Bool))
  (let ((a!1 (and (not (<= G (+ 1 I))) (not (<= G H)))))
  (let ((a!2 (or (not K)
                 (not (= I H))
                 (not a!1)
                 (not (Proc12 G F E K I D))
                 (not (and (= C G) (= B D))))))
    (=> (not a!2) (Proc13 H F E K A C B))))))
(assert (forall ((A Int) (B Int) (C Int) (D Int) (E Int) (K Bool))
  (let ((a!1 (not (or (not K) (not (= E 1))))))
    (=> a!1 (Proc12 D C B K A E)))))
(assert (forall ((A Int)
         (B Int)
         (C Int)
         (D Int)
         (E Int)
         (F Int)
         (G Int)
         (H Int)
         (I Int)
         (J Int)
         (K Bool))
  (let ((a!1 (or (not (and (= I H) (= G F))) (not (and (= E G) (= D I)))))
        (a!2 (or (not (= A 1))
                 (not (and (= I A) (= G B)))
                 (not (and (= E G) (= D I)))))
        (a!3 (or (= A 1)
                 (not (and (= I A) (= G B)))
                 (not (and (= E G) (= D I)))))
        (a!5 (or (not (= J 0))
                 (not (and (= I H) (= G F)))
                 (not (and (= E G) (= D I))))))
  (let ((a!4 (and a!1 (or (not (Proc13 F J H K C B A)) (and a!2 a!3)))))
  (let ((a!6 (or (not K) (and (or (= J 0) a!4) a!5 a!1))))
    (=> (not a!6) (Proc14 F J H K C E D)))))))
(assert (forall ((A Int) (B Int) (C Int) (K Bool)) (=> K (Proc15 C B A K))))
(assert (forall ((A Int) (B Int) (C Int) (K Bool)) (=> K (Proc16 C B A K))))
(assert (forall ((A Int) (B Int) (C Int) (D Int) (E Int) (K Bool))
  (let ((a!1 (or (not K) (not (and (= E 0) (= D 0))))))
    (=> (not a!1) (Proc17 C B A K E D)))))
(assert (forall ((A Int)
         (B Int)
         (C Int)
         (D Int)
         (E Int)
         (F Int)
         (G Int)
         (H Int)
         (I Int)
         (J Int)
         (K Bool)
         (L Int)
         (M Int)
         (N Int)
         (O Int)
         (P Int)
         (T Bool)
         (U Bool)
         (V Bool))
  (let ((a!1 (not (and (not (<= P 0)) (Proc18 P O N V M))))
        (a!2 (not (and (= E G) (= D L) (= C H) (= T U) (= B I)))))
  (let ((a!3 (or (= H 0) (not (and (= G F) (not U))) a!2))
        (a!4 (or (not (and (= H 0) (= K V))) (not (and (= G A) (= U K))) a!2)))
  (let ((a!5 (and (or (= H 1) (and a!3 a!4)) (or (not (= H 1)) (and a!3 a!4)))))
  (let ((a!6 (not (or (not V)
                      a!1
                      (not (Proc17 M O N V L J))
                      (not (Proc16 M L J V))
                      (not (Proc15 M L J V))
                      (not (Proc19 M L J V I H))
                      a!5))))
    (=> a!6 (Proc20 P O N V E D C T B))))))))
(assert (forall ((A Int) (B Int) (C Int) (D Int) (K Bool))
  (let ((a!1 (not (or (not K) (not (= D 1))))))
    (=> a!1 (Proc21 C B A K D)))))
(assert (forall ((A Int) (B Int) (C Int) (D Int) (K Bool))
  (let ((a!1 (not (or (not K) (not (= D 0))))))
    (=> a!1 (Proc22 C B A K D)))))
(assert (forall ((A Int) (B Int) (C Int) (D Int) (K Bool))
  (let ((a!1 (not (or (not K) (not (= D 1))))))
    (=> a!1 (Proc23 C B A K D)))))
(assert (forall ((A Int) (B Int) (C Int) (D Int) (K Bool))
  (let ((a!1 (not (or (not K) (not (= D 0))))))
    (=> a!1 (Proc24 C B A K D)))))
(assert (forall ((A Int) (B Int) (C Int) (D Int) (K Bool))
  (let ((a!1 (not (or (not K) (not (= D 1))))))
    (=> a!1 (Proc25 C B A K D)))))
(assert (forall ((A Int) (B Int) (C Int) (D Int) (K Bool))
  (let ((a!1 (not (or (not K) (not (= D 1))))))
    (=> a!1 (Proc26 C B A K D)))))
(assert (forall ((A Int) (B Int) (C Int) (D Int) (K Bool))
  (let ((a!1 (not (or (not K) (not (= D 1))))))
    (=> a!1 (Proc27 C B A K D)))))
(assert (forall ((A Int) (B Int) (C Int) (D Int) (K Bool))
  (let ((a!1 (not (or (not K) (not (= D 1))))))
    (=> a!1 (Proc28 C B A K D)))))
(assert (forall ((A Int) (B Int) (C Int) (D Int) (K Bool))
  (let ((a!1 (not (or (not K) (not (= D 1))))))
    (=> a!1 (Proc29 C B A K D)))))
(assert (forall ((A Int) (B Int) (C Int) (D Int) (K Bool))
  (let ((a!1 (not (or (not K) (not (= D 0))))))
    (=> a!1 (Proc30 C B A K D)))))
(assert (forall ((A Int) (B Int) (C Int) (D Int) (K Bool))
  (let ((a!1 (not (or (not K) (not (= D 0))))))
    (=> a!1 (Proc31 C B A K D)))))
(assert (forall ((A Int) (B Int) (C Int) (D Int) (E Int) (K Bool))
  (let ((a!1 (or (not K) (not (= E (- 1073741823))) (not (= D E)))))
    (=> (not a!1) (Proc32 C B A K D)))))
(assert (forall ((A Int) (B Int) (C Int) (D Int) (K Bool)) (=> K (Proc0 D C B K A))))
(assert (forall ((A Int) (B Int) (C Int) (D Int) (E Int) (F Int) (G Int) (K Bool))
  (let ((a!1 (not (or (not K) (not (Proc11 G F E K D C B)) (not (= A B))))))
    (=> a!1 (Proc3 G F E K D C A)))))
(assert (forall ((A Int) (B Int) (C Int) (D Int) (K Bool))
  (let ((a!1 (not (or (not K) (not (= D 1))))))
    (=> a!1 (Proc33 C B A K D)))))
(assert (forall ((A Int)
         (B Int)
         (C Int)
         (D Int)
         (E Int)
         (F Int)
         (G Int)
         (H Int)
         (I Int)
         (K Bool))
  (let ((a!1 (and (or (not (= I H)) (not (= G I)))
                  (or (not (= I F)) (not (= G I)))
                  (or (not (= I E)) (not (= G I))))))
    (=> (not (or (not K) a!1)) (Proc34 D C B K A G)))))
(assert (forall ((A Int)
         (B Int)
         (C Int)
         (D Int)
         (E Int)
         (F Int)
         (G Int)
         (H Int)
         (I Int)
         (J Int)
         (K Bool))
  (let ((a!1 (not (or (not K) (not (Proc34 J I H K G F)) (= F 0)))))
    (=> a!1 (Proc5 J I H K G E D C B A)))))
(assert (forall ((A Int) (B Int) (C Int) (D Int) (E Int) (K Bool))
  (=> (not (or (not K) (= E 0))) (Proc7 D C B K A E))))
(assert (forall ((A Int)
         (B Int)
         (C Int)
         (D Int)
         (E Int)
         (F Int)
         (G Int)
         (H Int)
         (I Int)
         (J Int)
         (K Bool)
         (L Int)
         (M Int)
         (N Int)
         (O Int)
         (P Int)
         (Q Int)
         (R Int)
         (S Int)
         (W Int)
         (X Int)
         (Y Int)
         (Z Int)
         (A1 Int)
         (B1 Int)
         (C1 Int)
         (D1 Int)
         (E1 Int)
         (F1 Int)
         (G1 Int)
         (H1 Int)
         (I1 Int))
  (let ((a!1 (or (= E1 0)
                 (not (Proc2 H1 G1 F1 K D1 I1 C1))
                 (not (and (= B1 C1) (= A1 H1)))
                 (not (Proc37 A1 G1 F1 K B1 I1))
                 (= I1 0)
                 (not (and (= Z B1) (= Y A1)))))
        (a!2 (or (= E1 0)
                 (not (Proc32 H1 G1 F1 K X))
                 (not (and (= B1 X) (= A1 H1)))
                 (not (Proc37 A1 G1 F1 K B1 I1))
                 (= I1 0)
                 (not (and (= Z B1) (= Y A1)))))
        (a!3 (or (= E1 0)
                 (not (Proc8 H1 G1 F1 K D1 I1 W S))
                 (not (and (= B1 W) (= A1 S)))
                 (not (Proc37 A1 G1 F1 K B1 I1))
                 (= I1 0)
                 (not (and (= Z B1) (= Y A1)))))
        (a!4 (or (= E1 0)
                 (not (Proc32 H1 G1 F1 K R))
                 (not (and (= B1 R) (= A1 H1)))
                 (not (Proc37 A1 G1 F1 K B1 I1))
                 (= I1 0)
                 (not (and (= Z B1) (= Y A1)))))
        (a!5 (or (= E1 0)
                 (not (Proc32 H1 G1 F1 K Q))
                 (not (and (= B1 Q) (= A1 H1)))
                 (not (Proc37 A1 G1 F1 K B1 I1))
                 (= I1 0)
                 (not (and (= Z B1) (= Y A1)))))
        (a!6 (or (= E1 0)
                 (not (Proc32 H1 G1 F1 K P))
                 (not (and (= B1 P) (= A1 H1)))
                 (not (Proc37 A1 G1 F1 K B1 I1))
                 (= I1 0)
                 (not (and (= Z B1) (= Y A1)))))
        (a!7 (or (= E1 0)
                 (not (Proc32 H1 G1 F1 K O))
                 (not (and (= B1 O) (= A1 H1)))
                 (not (Proc37 A1 G1 F1 K B1 I1))
                 (= I1 0)
                 (not (and (= Z B1) (= Y A1)))))
        (a!8 (or (not (Proc32 H1 G1 F1 K N))
                 (not (and (= B1 N) (= A1 H1)))
                 (not (Proc37 A1 G1 F1 K B1 I1))
                 (= I1 0)
                 (not (and (= Z B1) (= Y A1)))))
        (a!9 (or (= E1 0)
                 (not (Proc32 H1 G1 F1 K M))
                 (not (and (= B1 M) (= A1 H1)))
                 (not (Proc37 A1 G1 F1 K B1 I1))
                 (= I1 0)
                 (not (and (= Z B1) (= Y A1)))))
        (a!10 (or (= E1 0)
                  (not (Proc32 H1 G1 F1 K L))
                  (not (and (= B1 L) (= A1 H1)))
                  (not (Proc37 A1 G1 F1 K B1 I1))
                  (= I1 0)
                  (not (and (= Z B1) (= Y A1)))))
        (a!11 (or (= E1 0)
                  (not (Proc32 H1 G1 F1 K J))
                  (not (and (= B1 J) (= A1 H1)))
                  (not (Proc37 A1 G1 F1 K B1 I1))
                  (= I1 0)
                  (not (and (= Z B1) (= Y A1)))))
        (a!12 (or (not (Proc32 H1 G1 F1 K I))
                  (not (and (= B1 I) (= A1 H1)))
                  (not (Proc37 A1 G1 F1 K B1 I1))
                  (= I1 0)
                  (not (and (= Z B1) (= Y A1)))))
        (a!13 (or (= E1 0)
                  (not (Proc32 H1 G1 F1 K H))
                  (not (and (= B1 H) (= A1 H1)))
                  (not (Proc37 A1 G1 F1 K B1 I1))
                  (= I1 0)
                  (not (and (= Z B1) (= Y A1)))))
        (a!14 (or (= E1 0)
                  (not (Proc38 H1 G1 F1 K I1))
                  (not (Proc6 H1 G1 F1 K D1 I1 G))
                  (not (and (= B1 G) (= A1 H1)))
                  (not (Proc37 A1 G1 F1 K B1 I1))
                  (= I1 0)
                  (not (and (= Z B1) (= Y A1)))))
        (a!15 (or (= E1 0)
                  (not (Proc10 H1 G1 F1 K D1 I1 F E))
                  (not (and (= B1 F) (= A1 E)))
                  (not (Proc37 A1 G1 F1 K B1 I1))
                  (= I1 0)
                  (not (and (= Z B1) (= Y A1)))))
        (a!16 (or (not (Proc32 H1 G1 F1 K D))
                  (not (and (= B1 D) (= A1 H1)))
                  (not (Proc37 A1 G1 F1 K B1 I1))
                  (= I1 0)
                  (not (and (= Z B1) (= Y A1)))))
        (a!17 (or (= E1 0)
                  (not (Proc4 H1 G1 F1 K D1 I1 C))
                  (not (and (= B1 C) (= A1 H1)))
                  (not (Proc37 A1 G1 F1 K B1 I1))
                  (= I1 0)
                  (not (and (= Z B1) (= Y A1)))))
        (a!18 (or (not (= B 1))
                  (= B 0)
                  (= E1 0)
                  (not (Proc4 H1 G1 F1 K D1 I1 C))
                  (not (and (= B1 C) (= A1 H1)))
                  (not (Proc37 A1 G1 F1 K B1 I1))
                  (= I1 0)
                  (not (and (= Z B1) (= Y A1))))))
  (let ((a!19 (and (or (= E1 0) (and a!17 a!18))
                   (or (not (= A 1)) (= A 0) (= E1 0) (and a!17 a!18)))))
  (let ((a!20 (or (not K)
                  (= I1 0)
                  (not (Proc35 H1 G1 F1 K I1))
                  (= E1 0)
                  (not (Proc36 H1 G1 F1 K))
                  (and a!1
                       a!2
                       a!3
                       a!4
                       a!5
                       a!6
                       a!7
                       a!8
                       a!9
                       a!10
                       a!11
                       a!12
                       a!13
                       a!14
                       a!15
                       a!16
                       (or (= E1 0) a!19)))))
    (=> (not a!20) (Proc39 H1 G1 F1 K D1 I1 Z Y)))))))
(assert (forall ((A Int) (B Int) (C Int) (D Int) (E Int) (F Int) (K Bool))
  (let ((a!1 (not (or (not K)
                      (not (Proc40 F E D K))
                      (not (Proc32 F E D K C))
                      (not (Proc41 F E D K))))))
    (=> a!1 (Proc42 F E D K B A)))))
(assert (forall ((A Int) (B Int) (C Int) (D Int) (E Int) (K Bool))
  (=> (not (or (not K) (= E 0) (= D 0))) (Proc38 C B A K E))))
(assert (forall ((A Int) (B Int) (C Int) (D Int) (K Bool))
  (=> (not (or (not K) (= D 0))) (Proc35 C B A K D))))
(assert (forall ((A Int)
         (B Int)
         (C Int)
         (D Int)
         (E Int)
         (F Int)
         (G Int)
         (H Int)
         (I Int)
         (J Int)
         (K Bool)
         (L Int)
         (M Int)
         (N Int)
         (O Int)
         (P Int)
         (Q Int)
         (R Int)
         (S Int)
         (W Int)
         (X Int)
         (Y Int)
         (Z Int)
         (A1 Int)
         (B1 Int)
         (C1 Int)
         (D1 Int)
         (E1 Int)
         (F1 Int)
         (G1 Int))
  (let ((a!1 (or (not (and (= J E1) (= I L))) (not (and (= H I) (= G J)))))
        (a!2 (and (not (<= E (+ 1 F))) (not (<= E L))))
        (a!3 (or (not (= C 1))
                 (not (and (= J C) (= I D)))
                 (not (and (= H I) (= G J)))))
        (a!4 (or (= C 1)
                 (not (and (= J C) (= I D)))
                 (not (and (= H I) (= G J)))))
        (a!6 (or (not (= D1 0))
                 (not (and (= J E1) (= I G1)))
                 (not (and (= H I) (= G J)))))
        (a!7 (or (not (and (= J E1) (= I G1))) (not (and (= H I) (= G J)))))
        (a!8 (or (= C1 0)
                 (not (Proc43 G1 F1 E1 K))
                 (not (Proc42 G1 F1 E1 K B A))
                 (not (and (= J E1) (= I G1)))
                 (not (and (= H I) (= G J)))))
        (a!9 (or (not (= C1 0))
                 (not (and (= J E1) (= I G1)))
                 (not (and (= H I) (= G J))))))
  (let ((a!5 (and a!1
                  (or (not (= F L))
                      (not a!2)
                      (not (Proc14 E F1 E1 K F D C))
                      (and a!3 a!4)))))
  (let ((a!10 (and (or (= D1 0)
                       (not (Proc43 G1 F1 E1 K))
                       (not (Proc39 G1 F1 E1 K O N M L))
                       a!5)
                   a!6
                   a!7
                   a!8
                   a!9)))
  (let ((a!11 (not (or (not K)
                       (not (Proc23 G1 F1 E1 K D1))
                       (not (Proc30 G1 F1 E1 K C1))
                       (not (Proc24 G1 F1 E1 K B1))
                       (not (Proc29 G1 F1 E1 K A1))
                       (not (Proc22 G1 F1 E1 K Z))
                       (not (Proc26 G1 F1 E1 K Y))
                       (not (Proc33 G1 F1 E1 K X))
                       (not (Proc31 G1 F1 E1 K W))
                       (not (Proc21 G1 F1 E1 K S))
                       (not (Proc27 G1 F1 E1 K R))
                       (not (Proc28 G1 F1 E1 K Q))
                       (not (Proc25 G1 F1 E1 K P))
                       a!10))))
    (=> a!11 (Proc19 G1 F1 E1 K H G))))))))
(assert (forall ((A Int) (B Int) (C Int) (K Bool)) (=> K (Proc36 C B A K))))
(assert (forall ((A Int) (B Int) (C Int) (D Int) (E Int) (K Bool))
  (=> K (Proc37 E D C K B A))))
(assert (forall ((A Int) (B Int) (C Int) (K Bool)) (=> K (Proc43 C B A K))))
(assert (forall ((A Int) (B Int) (C Int) (K Bool)) (=> K (Proc40 C B A K))))
(assert (forall ((A Int) (B Int) (C Int) (K Bool)) (=> K (Proc41 C B A K))))
(assert (forall ((A Int)
         (B Int)
         (C Int)
         (D Int)
         (E Int)
         (F Int)
         (G Int)
         (H Int)
         (I Int)
         (J Int)
         (K Bool)
         (L Int)
         (M Int)
         (N Int)
         (O Int)
         (P Int)
         (Q Int)
         (R Int)
         (S Int)
         (W Int)
         (X Int)
         (Y Int)
         (Z Int)
         (A1 Int)
         (B1 Int)
         (C1 Int)
         (D1 Int)
         (E1 Int)
         (F1 Int)
         (G1 Int)
         (H1 Int)
         (I1 Int)
         (J1 Int)
         (K1 Int)
         (L1 Int)
         (M1 Int)
         (N1 Int)
         (O1 Int)
         (P1 Int)
         (Q1 Int)
         (R1 Int)
         (S1 Int)
         (T1 Int)
         (U1 Int)
         (V1 Int)
         (W1 Int)
         (X1 Int)
         (Y1 Int)
         (Z1 Int)
         (A2 Int)
         (B2 Int)
         (C2 Int)
         (D2 Int)
         (E2 Int)
         (F2 Int)
         (G2 Int)
         (H2 Int)
         (I2 Int)
         (J2 Int))
  (let ((a!1 (and (not (<= H2 (+ 4 J2)))
                  (not (<= H2 I2))
                  (= G2 H2)
                  (not (<= F2 (+ 240 G2)))
                  (not (<= F2 H2))
                  (= E2 F2)
                  (not (<= D2 (+ 4 E2)))
                  (not (<= D2 F2))
                  (= C2 D2)
                  (not (<= B2 (+ 332 C2)))
                  (not (<= B2 D2))
                  (= A2 B2)
                  (not (<= Z1 (+ 4 A2)))
                  (not (<= Z1 B2))
                  (= Y1 Z1)
                  (not (<= X1 (+ 536 Y1)))))
        (a!2 (and (not (<= X1 Z1))
                  (= W1 X1)
                  (not (<= V1 (+ 240 W1)))
                  (not (<= V1 X1))
                  (= U1 V1)
                  (not (<= T1 (+ 240 U1)))
                  (not (<= T1 V1))
                  (= S1 T1)
                  (not (<= R1 (+ 536 S1)))
                  (not (<= R1 T1))
                  (= Q1 R1)
                  (not (<= P1 (+ 240 Q1)))
                  (not (<= P1 R1))
                  (= O1 P1)
                  (not (<= N1 (+ 4 O1)))
                  (not (<= N1 P1))
                  (= M1 N1)
                  (not (<= L1 (+ 536 M1)))
                  (not (<= L1 N1))
                  (= K1 L1)
                  (not (<= J1 (+ 332 K1)))
                  (not (<= J1 L1))
                  (= I1 J1)
                  (not (<= H1 (+ 240 I1)))
                  (not (<= H1 J1))
                  (= G1 H1)
                  (not (<= F1 (+ 240 G1)))
                  (not (<= F1 H1))
                  (= E1 F1)
                  (not (<= D1 (+ 332 E1)))
                  (not (<= D1 F1))
                  (= C1 D1)
                  (not (<= B1 (+ 4 C1)))
                  (not (<= B1 D1))
                  (= A1 B1)
                  (not (<= Z (+ 536 A1)))
                  (not (<= Z B1))
                  (= Y Z)
                  (not (<= X (+ 240 Y)))
                  (not (<= X Z))
                  (= W X)
                  (not (<= S (+ 240 W)))
                  (not (<= S X))
                  (= R S)
                  (not (<= Q (+ 240 R)))
                  (not (<= Q S))
                  (= P Q)
                  (not (<= O (+ 240 P)))
                  (not (<= O Q))
                  (= N O)
                  (not (<= M (+ 240 N)))
                  (not (<= M O))
                  (= L M)
                  (not (<= J (+ 40 L)))
                  (not (<= J M))
                  (= I J)
                  (not (<= H (+ 332 I)))
                  (not (<= H J))
                  (= G H)
                  (not (<= F (+ 4 G)))
                  (not (<= F H))
                  (= E F)
                  (not (<= D (+ 40 E)))
                  (not (<= D F)))))
  (let ((a!3 (not (or (not K) (not (= J2 I2)) (not a!1) (not a!2) (not (= C D))))))
    (=> a!3 (Proc18 I2 B A K C))))))
(assert (forall ((A Int)
         (B Int)
         (C Int)
         (D Int)
         (E Int)
         (F Int)
         (G Int)
         (H Int)
         (I Int)
         (J Int)
         (K Bool)
         (L Int)
         (T Bool)
         (U Bool))
  (let ((a!1 (or (not U) (not (and (Proc20 L J I true H G F T E) (not T))))))
    (=> (not a!1) (Proc44 L J I U D K C B A)))))
(assert (let ((a!1 (exists ((V0 Int)
                    (V1 Int)
                    (V2 Int)
                    (V3 Bool)
                    (V4 Int)
                    (V5 Bool)
                    (V6 Int)
                    (V7 Int)
                    (V8 Int))
             (not (=> (and (Proc44 V0 V1 V2 V3 V4 V5 V6 V7 V8) (not false))
                      false)))))
  (not a!1)))

(check-sat)
